p cnf 43893 1822
3 4 6 0
21 22 23 0
91 92 93 0
273 274 275 0
651 652 653 0
1333 1334 1335 0
2451 2452 2453 0
4161 4162 4163 0
6643 6644 6645 0
10101 10102 10103 0
14763 14764 14765 0
20881 20882 20883 0
28731 28732 28733 0
38613 38614 38615 0
31 32 33 0
111 112 113 0
307 308 309 0
703 704 705 0
1407 1408 1409 0
2551 2552 2553 0
4291 4292 4293 0
6807 6808 6809 0
10303 10304 10305 0
15007 15008 15009 0
21171 21172 21173 0
29071 29072 29073 0
39007 39008 39009 0
133 134 135 0
343 344 345 0
757 758 759 0
1483 1484 1485 0
2653 2654 2655 0
4423 4424 4425 0
6973 6974 6975 0
10507 10508 10509 0
15253 15254 15255 0
21463 21464 21465 0
29413 29414 29415 0
39403 39404 39405 0
381 382 383 0
813 814 815 0
1561 1562 1563 0
2757 2758 2759 0
4557 4558 4559 0
7141 7142 7143 0
10713 10714 10715 0
15501 15502 15503 0
21757 21758 21759 0
29757 29758 29759 0
39801 39802 39803 0
871 872 873 0
1641 1642 1643 0
2863 2864 2865 0
4693 4694 4695 0
7311 7312 7313 0
10921 10922 10923 0
15751 15752 15753 0
22053 22054 22055 0
30103 30104 30105 0
40201 40202 40203 0
1723 1724 1725 0
2971 2972 2973 0
4831 4832 4833 0
7483 7484 7485 0
11131 11132 11133 0
16003 16004 16005 0
22351 22352 22353 0
30451 30452 30453 0
40603 40604 40605 0
3081 3082 3083 0
4971 4972 4973 0
7657 7658 7659 0
11343 11344 11345 0
16257 16258 16259 0
22651 22652 22653 0
30801 30802 30803 0
41007 41008 41009 0
5113 5114 5115 0
7833 7834 7835 0
11557 11558 11559 0
16513 16514 16515 0
22953 22954 22955 0
31153 31154 31155 0
41413 41414 41415 0
8011 8012 8013 0
11773 11774 11775 0
16771 16772 16773 0
23257 23258 23259 0
31507 31508 31509 0
41821 41822 41823 0
11991 11992 11993 0
17031 17032 17033 0
23563 23564 23565 0
31863 31864 31865 0
42231 42232 42233 0
17293 17294 17295 0
23871 23872 23873 0
32221 32222 32223 0
42643 42644 42645 0
24181 24182 24183 0
32581 32582 32583 0
43057 43058 43059 0
32943 32944 32945 0
43473 43474 43475 0
43891 43892 43893 0
-3 -4 0
-3 -6 0
-4 -6 0
-21 -22 0
-21 -23 0
-22 -23 0
-91 -92 0
-91 -93 0
-92 -93 0
-273 -274 0
-273 -275 0
-274 -275 0
-651 -652 0
-651 -653 0
-652 -653 0
-1333 -1334 0
-1333 -1335 0
-1334 -1335 0
-2451 -2452 0
-2451 -2453 0
-2452 -2453 0
-4161 -4162 0
-4161 -4163 0
-4162 -4163 0
-6643 -6644 0
-6643 -6645 0
-6644 -6645 0
-10101 -10102 0
-10101 -10103 0
-10102 -10103 0
-14763 -14764 0
-14763 -14765 0
-14764 -14765 0
-20881 -20882 0
-20881 -20883 0
-20882 -20883 0
-28731 -28732 0
-28731 -28733 0
-28732 -28733 0
-38613 -38614 0
-38613 -38615 0
-38614 -38615 0
-31 -32 0
-31 -33 0
-32 -33 0
-111 -112 0
-111 -113 0
-112 -113 0
-307 -308 0
-307 -309 0
-308 -309 0
-703 -704 0
-703 -705 0
-704 -705 0
-1407 -1408 0
-1407 -1409 0
-1408 -1409 0
-2551 -2552 0
-2551 -2553 0
-2552 -2553 0
-4291 -4292 0
-4291 -4293 0
-4292 -4293 0
-6807 -6808 0
-6807 -6809 0
-6808 -6809 0
-10303 -10304 0
-10303 -10305 0
-10304 -10305 0
-15007 -15008 0
-15007 -15009 0
-15008 -15009 0
-21171 -21172 0
-21171 -21173 0
-21172 -21173 0
-29071 -29072 0
-29071 -29073 0
-29072 -29073 0
-39007 -39008 0
-39007 -39009 0
-39008 -39009 0
-133 -134 0
-133 -135 0
-134 -135 0
-343 -344 0
-343 -345 0
-344 -345 0
-757 -758 0
-757 -759 0
-758 -759 0
-1483 -1484 0
-1483 -1485 0
-1484 -1485 0
-2653 -2654 0
-2653 -2655 0
-2654 -2655 0
-4423 -4424 0
-4423 -4425 0
-4424 -4425 0
-6973 -6974 0
-6973 -6975 0
-6974 -6975 0
-10507 -10508 0
-10507 -10509 0
-10508 -10509 0
-15253 -15254 0
-15253 -15255 0
-15254 -15255 0
-21463 -21464 0
-21463 -21465 0
-21464 -21465 0
-29413 -29414 0
-29413 -29415 0
-29414 -29415 0
-39403 -39404 0
-39403 -39405 0
-39404 -39405 0
-381 -382 0
-381 -383 0
-382 -383 0
-813 -814 0
-813 -815 0
-814 -815 0
-1561 -1562 0
-1561 -1563 0
-1562 -1563 0
-2757 -2758 0
-2757 -2759 0
-2758 -2759 0
-4557 -4558 0
-4557 -4559 0
-4558 -4559 0
-7141 -7142 0
-7141 -7143 0
-7142 -7143 0
-10713 -10714 0
-10713 -10715 0
-10714 -10715 0
-15501 -15502 0
-15501 -15503 0
-15502 -15503 0
-21757 -21758 0
-21757 -21759 0
-21758 -21759 0
-29757 -29758 0
-29757 -29759 0
-29758 -29759 0
-39801 -39802 0
-39801 -39803 0
-39802 -39803 0
-871 -872 0
-871 -873 0
-872 -873 0
-1641 -1642 0
-1641 -1643 0
-1642 -1643 0
-2863 -2864 0
-2863 -2865 0
-2864 -2865 0
-4693 -4694 0
-4693 -4695 0
-4694 -4695 0
-7311 -7312 0
-7311 -7313 0
-7312 -7313 0
-10921 -10922 0
-10921 -10923 0
-10922 -10923 0
-15751 -15752 0
-15751 -15753 0
-15752 -15753 0
-22053 -22054 0
-22053 -22055 0
-22054 -22055 0
-30103 -30104 0
-30103 -30105 0
-30104 -30105 0
-40201 -40202 0
-40201 -40203 0
-40202 -40203 0
-1723 -1724 0
-1723 -1725 0
-1724 -1725 0
-2971 -2972 0
-2971 -2973 0
-2972 -2973 0
-4831 -4832 0
-4831 -4833 0
-4832 -4833 0
-7483 -7484 0
-7483 -7485 0
-7484 -7485 0
-11131 -11132 0
-11131 -11133 0
-11132 -11133 0
-16003 -16004 0
-16003 -16005 0
-16004 -16005 0
-22351 -22352 0
-22351 -22353 0
-22352 -22353 0
-30451 -30452 0
-30451 -30453 0
-30452 -30453 0
-40603 -40604 0
-40603 -40605 0
-40604 -40605 0
-3081 -3082 0
-3081 -3083 0
-3082 -3083 0
-4971 -4972 0
-4971 -4973 0
-4972 -4973 0
-7657 -7658 0
-7657 -7659 0
-7658 -7659 0
-11343 -11344 0
-11343 -11345 0
-11344 -11345 0
-16257 -16258 0
-16257 -16259 0
-16258 -16259 0
-22651 -22652 0
-22651 -22653 0
-22652 -22653 0
-30801 -30802 0
-30801 -30803 0
-30802 -30803 0
-41007 -41008 0
-41007 -41009 0
-41008 -41009 0
-5113 -5114 0
-5113 -5115 0
-5114 -5115 0
-7833 -7834 0
-7833 -7835 0
-7834 -7835 0
-11557 -11558 0
-11557 -11559 0
-11558 -11559 0
-16513 -16514 0
-16513 -16515 0
-16514 -16515 0
-22953 -22954 0
-22953 -22955 0
-22954 -22955 0
-31153 -31154 0
-31153 -31155 0
-31154 -31155 0
-41413 -41414 0
-41413 -41415 0
-41414 -41415 0
-8011 -8012 0
-8011 -8013 0
-8012 -8013 0
-11773 -11774 0
-11773 -11775 0
-11774 -11775 0
-16771 -16772 0
-16771 -16773 0
-16772 -16773 0
-23257 -23258 0
-23257 -23259 0
-23258 -23259 0
-31507 -31508 0
-31507 -31509 0
-31508 -31509 0
-41821 -41822 0
-41821 -41823 0
-41822 -41823 0
-11991 -11992 0
-11991 -11993 0
-11992 -11993 0
-17031 -17032 0
-17031 -17033 0
-17032 -17033 0
-23563 -23564 0
-23563 -23565 0
-23564 -23565 0
-31863 -31864 0
-31863 -31865 0
-31864 -31865 0
-42231 -42232 0
-42231 -42233 0
-42232 -42233 0
-17293 -17294 0
-17293 -17295 0
-17294 -17295 0
-23871 -23872 0
-23871 -23873 0
-23872 -23873 0
-32221 -32222 0
-32221 -32223 0
-32222 -32223 0
-42643 -42644 0
-42643 -42645 0
-42644 -42645 0
-24181 -24182 0
-24181 -24183 0
-24182 -24183 0
-32581 -32582 0
-32581 -32583 0
-32582 -32583 0
-43057 -43058 0
-43057 -43059 0
-43058 -43059 0
-32943 -32944 0
-32943 -32945 0
-32944 -32945 0
-43473 -43474 0
-43473 -43475 0
-43474 -43475 0
-43891 -43892 0
-43891 -43893 0
-43892 -43893 0
-3 -21 -31 0
-4 -22 -32 0
-6 -23 -33 0
-3 -91 -111 0
-4 -92 -112 0
-6 -93 -113 0
-3 -273 -307 0
-4 -274 -308 0
-6 -275 -309 0
-3 -651 -703 0
-4 -652 -704 0
-6 -653 -705 0
-3 -1333 -1407 0
-4 -1334 -1408 0
-6 -1335 -1409 0
-3 -2451 -2551 0
-4 -2452 -2552 0
-6 -2453 -2553 0
-3 -4161 -4291 0
-4 -4162 -4292 0
-6 -4163 -4293 0
-3 -6643 -6807 0
-4 -6644 -6808 0
-6 -6645 -6809 0
-3 -10101 -10303 0
-4 -10102 -10304 0
-6 -10103 -10305 0
-3 -14763 -15007 0
-4 -14764 -15008 0
-6 -14765 -15009 0
-3 -20881 -21171 0
-4 -20882 -21172 0
-6 -20883 -21173 0
-3 -28731 -29071 0
-4 -28732 -29072 0
-6 -28733 -29073 0
-3 -38613 -39007 0
-4 -38614 -39008 0
-6 -38615 -39009 0
-21 -91 -133 0
-22 -92 -134 0
-23 -93 -135 0
-21 -273 -343 0
-22 -274 -344 0
-23 -275 -345 0
-21 -651 -757 0
-22 -652 -758 0
-23 -653 -759 0
-21 -1333 -1483 0
-22 -1334 -1484 0
-23 -1335 -1485 0
-21 -2451 -2653 0
-22 -2452 -2654 0
-23 -2453 -2655 0
-21 -4161 -4423 0
-22 -4162 -4424 0
-23 -4163 -4425 0
-21 -6643 -6973 0
-22 -6644 -6974 0
-23 -6645 -6975 0
-21 -10101 -10507 0
-22 -10102 -10508 0
-23 -10103 -10509 0
-21 -14763 -15253 0
-22 -14764 -15254 0
-23 -14765 -15255 0
-21 -20881 -21463 0
-22 -20882 -21464 0
-23 -20883 -21465 0
-21 -28731 -29413 0
-22 -28732 -29414 0
-23 -28733 -29415 0
-21 -38613 -39403 0
-22 -38614 -39404 0
-23 -38615 -39405 0
-91 -273 -381 0
-92 -274 -382 0
-93 -275 -383 0
-91 -651 -813 0
-92 -652 -814 0
-93 -653 -815 0
-91 -1333 -1561 0
-92 -1334 -1562 0
-93 -1335 -1563 0
-91 -2451 -2757 0
-92 -2452 -2758 0
-93 -2453 -2759 0
-91 -4161 -4557 0
-92 -4162 -4558 0
-93 -4163 -4559 0
-91 -6643 -7141 0
-92 -6644 -7142 0
-93 -6645 -7143 0
-91 -10101 -10713 0
-92 -10102 -10714 0
-93 -10103 -10715 0
-91 -14763 -15501 0
-92 -14764 -15502 0
-93 -14765 -15503 0
-91 -20881 -21757 0
-92 -20882 -21758 0
-93 -20883 -21759 0
-91 -28731 -29757 0
-92 -28732 -29758 0
-93 -28733 -29759 0
-91 -38613 -39801 0
-92 -38614 -39802 0
-93 -38615 -39803 0
-273 -651 -871 0
-274 -652 -872 0
-275 -653 -873 0
-273 -1333 -1641 0
-274 -1334 -1642 0
-275 -1335 -1643 0
-273 -2451 -2863 0
-274 -2452 -2864 0
-275 -2453 -2865 0
-273 -4161 -4693 0
-274 -4162 -4694 0
-275 -4163 -4695 0
-273 -6643 -7311 0
-274 -6644 -7312 0
-275 -6645 -7313 0
-273 -10101 -10921 0
-274 -10102 -10922 0
-275 -10103 -10923 0
-273 -14763 -15751 0
-274 -14764 -15752 0
-275 -14765 -15753 0
-273 -20881 -22053 0
-274 -20882 -22054 0
-275 -20883 -22055 0
-273 -28731 -30103 0
-274 -28732 -30104 0
-275 -28733 -30105 0
-273 -38613 -40201 0
-274 -38614 -40202 0
-275 -38615 -40203 0
-651 -1333 -1723 0
-652 -1334 -1724 0
-653 -1335 -1725 0
-651 -2451 -2971 0
-652 -2452 -2972 0
-653 -2453 -2973 0
-651 -4161 -4831 0
-652 -4162 -4832 0
-653 -4163 -4833 0
-651 -6643 -7483 0
-652 -6644 -7484 0
-653 -6645 -7485 0
-651 -10101 -11131 0
-652 -10102 -11132 0
-653 -10103 -11133 0
-651 -14763 -16003 0
-652 -14764 -16004 0
-653 -14765 -16005 0
-651 -20881 -22351 0
-652 -20882 -22352 0
-653 -20883 -22353 0
-651 -28731 -30451 0
-652 -28732 -30452 0
-653 -28733 -30453 0
-651 -38613 -40603 0
-652 -38614 -40604 0
-653 -38615 -40605 0
-1333 -2451 -3081 0
-1334 -2452 -3082 0
-1335 -2453 -3083 0
-1333 -4161 -4971 0
-1334 -4162 -4972 0
-1335 -4163 -4973 0
-1333 -6643 -7657 0
-1334 -6644 -7658 0
-1335 -6645 -7659 0
-1333 -10101 -11343 0
-1334 -10102 -11344 0
-1335 -10103 -11345 0
-1333 -14763 -16257 0
-1334 -14764 -16258 0
-1335 -14765 -16259 0
-1333 -20881 -22651 0
-1334 -20882 -22652 0
-1335 -20883 -22653 0
-1333 -28731 -30801 0
-1334 -28732 -30802 0
-1335 -28733 -30803 0
-1333 -38613 -41007 0
-1334 -38614 -41008 0
-1335 -38615 -41009 0
-2451 -4161 -5113 0
-2452 -4162 -5114 0
-2453 -4163 -5115 0
-2451 -6643 -7833 0
-2452 -6644 -7834 0
-2453 -6645 -7835 0
-2451 -10101 -11557 0
-2452 -10102 -11558 0
-2453 -10103 -11559 0
-2451 -14763 -16513 0
-2452 -14764 -16514 0
-2453 -14765 -16515 0
-2451 -20881 -22953 0
-2452 -20882 -22954 0
-2453 -20883 -22955 0
-2451 -28731 -31153 0
-2452 -28732 -31154 0
-2453 -28733 -31155 0
-2451 -38613 -41413 0
-2452 -38614 -41414 0
-2453 -38615 -41415 0
-4161 -6643 -8011 0
-4162 -6644 -8012 0
-4163 -6645 -8013 0
-4161 -10101 -11773 0
-4162 -10102 -11774 0
-4163 -10103 -11775 0
-4161 -14763 -16771 0
-4162 -14764 -16772 0
-4163 -14765 -16773 0
-4161 -20881 -23257 0
-4162 -20882 -23258 0
-4163 -20883 -23259 0
-4161 -28731 -31507 0
-4162 -28732 -31508 0
-4163 -28733 -31509 0
-4161 -38613 -41821 0
-4162 -38614 -41822 0
-4163 -38615 -41823 0
-6643 -10101 -11991 0
-6644 -10102 -11992 0
-6645 -10103 -11993 0
-6643 -14763 -17031 0
-6644 -14764 -17032 0
-6645 -14765 -17033 0
-6643 -20881 -23563 0
-6644 -20882 -23564 0
-6645 -20883 -23565 0
-6643 -28731 -31863 0
-6644 -28732 -31864 0
-6645 -28733 -31865 0
-6643 -38613 -42231 0
-6644 -38614 -42232 0
-6645 -38615 -42233 0
-10101 -14763 -17293 0
-10102 -14764 -17294 0
-10103 -14765 -17295 0
-10101 -20881 -23871 0
-10102 -20882 -23872 0
-10103 -20883 -23873 0
-10101 -28731 -32221 0
-10102 -28732 -32222 0
-10103 -28733 -32223 0
-10101 -38613 -42643 0
-10102 -38614 -42644 0
-10103 -38615 -42645 0
-14763 -20881 -24181 0
-14764 -20882 -24182 0
-14765 -20883 -24183 0
-14763 -28731 -32581 0
-14764 -28732 -32582 0
-14765 -28733 -32583 0
-14763 -38613 -43057 0
-14764 -38614 -43058 0
-14765 -38615 -43059 0
-20881 -28731 -32943 0
-20882 -28732 -32944 0
-20883 -28733 -32945 0
-20881 -38613 -43473 0
-20882 -38614 -43474 0
-20883 -38615 -43475 0
-28731 -38613 -43891 0
-28732 -38614 -43892 0
-28733 -38615 -43893 0
-31 -111 -133 0
-32 -112 -134 0
-33 -113 -135 0
-31 -307 -343 0
-32 -308 -344 0
-33 -309 -345 0
-31 -703 -757 0
-32 -704 -758 0
-33 -705 -759 0
-31 -1407 -1483 0
-32 -1408 -1484 0
-33 -1409 -1485 0
-31 -2551 -2653 0
-32 -2552 -2654 0
-33 -2553 -2655 0
-31 -4291 -4423 0
-32 -4292 -4424 0
-33 -4293 -4425 0
-31 -6807 -6973 0
-32 -6808 -6974 0
-33 -6809 -6975 0
-31 -10303 -10507 0
-32 -10304 -10508 0
-33 -10305 -10509 0
-31 -15007 -15253 0
-32 -15008 -15254 0
-33 -15009 -15255 0
-31 -21171 -21463 0
-32 -21172 -21464 0
-33 -21173 -21465 0
-31 -29071 -29413 0
-32 -29072 -29414 0
-33 -29073 -29415 0
-31 -39007 -39403 0
-32 -39008 -39404 0
-33 -39009 -39405 0
-111 -307 -381 0
-112 -308 -382 0
-113 -309 -383 0
-111 -703 -813 0
-112 -704 -814 0
-113 -705 -815 0
-111 -1407 -1561 0
-112 -1408 -1562 0
-113 -1409 -1563 0
-111 -2551 -2757 0
-112 -2552 -2758 0
-113 -2553 -2759 0
-111 -4291 -4557 0
-112 -4292 -4558 0
-113 -4293 -4559 0
-111 -6807 -7141 0
-112 -6808 -7142 0
-113 -6809 -7143 0
-111 -10303 -10713 0
-112 -10304 -10714 0
-113 -10305 -10715 0
-111 -15007 -15501 0
-112 -15008 -15502 0
-113 -15009 -15503 0
-111 -21171 -21757 0
-112 -21172 -21758 0
-113 -21173 -21759 0
-111 -29071 -29757 0
-112 -29072 -29758 0
-113 -29073 -29759 0
-111 -39007 -39801 0
-112 -39008 -39802 0
-113 -39009 -39803 0
-307 -703 -871 0
-308 -704 -872 0
-309 -705 -873 0
-307 -1407 -1641 0
-308 -1408 -1642 0
-309 -1409 -1643 0
-307 -2551 -2863 0
-308 -2552 -2864 0
-309 -2553 -2865 0
-307 -4291 -4693 0
-308 -4292 -4694 0
-309 -4293 -4695 0
-307 -6807 -7311 0
-308 -6808 -7312 0
-309 -6809 -7313 0
-307 -10303 -10921 0
-308 -10304 -10922 0
-309 -10305 -10923 0
-307 -15007 -15751 0
-308 -15008 -15752 0
-309 -15009 -15753 0
-307 -21171 -22053 0
-308 -21172 -22054 0
-309 -21173 -22055 0
-307 -29071 -30103 0
-308 -29072 -30104 0
-309 -29073 -30105 0
-307 -39007 -40201 0
-308 -39008 -40202 0
-309 -39009 -40203 0
-703 -1407 -1723 0
-704 -1408 -1724 0
-705 -1409 -1725 0
-703 -2551 -2971 0
-704 -2552 -2972 0
-705 -2553 -2973 0
-703 -4291 -4831 0
-704 -4292 -4832 0
-705 -4293 -4833 0
-703 -6807 -7483 0
-704 -6808 -7484 0
-705 -6809 -7485 0
-703 -10303 -11131 0
-704 -10304 -11132 0
-705 -10305 -11133 0
-703 -15007 -16003 0
-704 -15008 -16004 0
-705 -15009 -16005 0
-703 -21171 -22351 0
-704 -21172 -22352 0
-705 -21173 -22353 0
-703 -29071 -30451 0
-704 -29072 -30452 0
-705 -29073 -30453 0
-703 -39007 -40603 0
-704 -39008 -40604 0
-705 -39009 -40605 0
-1407 -2551 -3081 0
-1408 -2552 -3082 0
-1409 -2553 -3083 0
-1407 -4291 -4971 0
-1408 -4292 -4972 0
-1409 -4293 -4973 0
-1407 -6807 -7657 0
-1408 -6808 -7658 0
-1409 -6809 -7659 0
-1407 -10303 -11343 0
-1408 -10304 -11344 0
-1409 -10305 -11345 0
-1407 -15007 -16257 0
-1408 -15008 -16258 0
-1409 -15009 -16259 0
-1407 -21171 -22651 0
-1408 -21172 -22652 0
-1409 -21173 -22653 0
-1407 -29071 -30801 0
-1408 -29072 -30802 0
-1409 -29073 -30803 0
-1407 -39007 -41007 0
-1408 -39008 -41008 0
-1409 -39009 -41009 0
-2551 -4291 -5113 0
-2552 -4292 -5114 0
-2553 -4293 -5115 0
-2551 -6807 -7833 0
-2552 -6808 -7834 0
-2553 -6809 -7835 0
-2551 -10303 -11557 0
-2552 -10304 -11558 0
-2553 -10305 -11559 0
-2551 -15007 -16513 0
-2552 -15008 -16514 0
-2553 -15009 -16515 0
-2551 -21171 -22953 0
-2552 -21172 -22954 0
-2553 -21173 -22955 0
-2551 -29071 -31153 0
-2552 -29072 -31154 0
-2553 -29073 -31155 0
-2551 -39007 -41413 0
-2552 -39008 -41414 0
-2553 -39009 -41415 0
-4291 -6807 -8011 0
-4292 -6808 -8012 0
-4293 -6809 -8013 0
-4291 -10303 -11773 0
-4292 -10304 -11774 0
-4293 -10305 -11775 0
-4291 -15007 -16771 0
-4292 -15008 -16772 0
-4293 -15009 -16773 0
-4291 -21171 -23257 0
-4292 -21172 -23258 0
-4293 -21173 -23259 0
-4291 -29071 -31507 0
-4292 -29072 -31508 0
-4293 -29073 -31509 0
-4291 -39007 -41821 0
-4292 -39008 -41822 0
-4293 -39009 -41823 0
-6807 -10303 -11991 0
-6808 -10304 -11992 0
-6809 -10305 -11993 0
-6807 -15007 -17031 0
-6808 -15008 -17032 0
-6809 -15009 -17033 0
-6807 -21171 -23563 0
-6808 -21172 -23564 0
-6809 -21173 -23565 0
-6807 -29071 -31863 0
-6808 -29072 -31864 0
-6809 -29073 -31865 0
-6807 -39007 -42231 0
-6808 -39008 -42232 0
-6809 -39009 -42233 0
-10303 -15007 -17293 0
-10304 -15008 -17294 0
-10305 -15009 -17295 0
-10303 -21171 -23871 0
-10304 -21172 -23872 0
-10305 -21173 -23873 0
-10303 -29071 -32221 0
-10304 -29072 -32222 0
-10305 -29073 -32223 0
-10303 -39007 -42643 0
-10304 -39008 -42644 0
-10305 -39009 -42645 0
-15007 -21171 -24181 0
-15008 -21172 -24182 0
-15009 -21173 -24183 0
-15007 -29071 -32581 0
-15008 -29072 -32582 0
-15009 -29073 -32583 0
-15007 -39007 -43057 0
-15008 -39008 -43058 0
-15009 -39009 -43059 0
-21171 -29071 -32943 0
-21172 -29072 -32944 0
-21173 -29073 -32945 0
-21171 -39007 -43473 0
-21172 -39008 -43474 0
-21173 -39009 -43475 0
-29071 -39007 -43891 0
-29072 -39008 -43892 0
-29073 -39009 -43893 0
-133 -343 -381 0
-134 -344 -382 0
-135 -345 -383 0
-133 -757 -813 0
-134 -758 -814 0
-135 -759 -815 0
-133 -1483 -1561 0
-134 -1484 -1562 0
-135 -1485 -1563 0
-133 -2653 -2757 0
-134 -2654 -2758 0
-135 -2655 -2759 0
-133 -4423 -4557 0
-134 -4424 -4558 0
-135 -4425 -4559 0
-133 -6973 -7141 0
-134 -6974 -7142 0
-135 -6975 -7143 0
-133 -10507 -10713 0
-134 -10508 -10714 0
-135 -10509 -10715 0
-133 -15253 -15501 0
-134 -15254 -15502 0
-135 -15255 -15503 0
-133 -21463 -21757 0
-134 -21464 -21758 0
-135 -21465 -21759 0
-133 -29413 -29757 0
-134 -29414 -29758 0
-135 -29415 -29759 0
-133 -39403 -39801 0
-134 -39404 -39802 0
-135 -39405 -39803 0
-343 -757 -871 0
-344 -758 -872 0
-345 -759 -873 0
-343 -1483 -1641 0
-344 -1484 -1642 0
-345 -1485 -1643 0
-343 -2653 -2863 0
-344 -2654 -2864 0
-345 -2655 -2865 0
-343 -4423 -4693 0
-344 -4424 -4694 0
-345 -4425 -4695 0
-343 -6973 -7311 0
-344 -6974 -7312 0
-345 -6975 -7313 0
-343 -10507 -10921 0
-344 -10508 -10922 0
-345 -10509 -10923 0
-343 -15253 -15751 0
-344 -15254 -15752 0
-345 -15255 -15753 0
-343 -21463 -22053 0
-344 -21464 -22054 0
-345 -21465 -22055 0
-343 -29413 -30103 0
-344 -29414 -30104 0
-345 -29415 -30105 0
-343 -39403 -40201 0
-344 -39404 -40202 0
-345 -39405 -40203 0
-757 -1483 -1723 0
-758 -1484 -1724 0
-759 -1485 -1725 0
-757 -2653 -2971 0
-758 -2654 -2972 0
-759 -2655 -2973 0
-757 -4423 -4831 0
-758 -4424 -4832 0
-759 -4425 -4833 0
-757 -6973 -7483 0
-758 -6974 -7484 0
-759 -6975 -7485 0
-757 -10507 -11131 0
-758 -10508 -11132 0
-759 -10509 -11133 0
-757 -15253 -16003 0
-758 -15254 -16004 0
-759 -15255 -16005 0
-757 -21463 -22351 0
-758 -21464 -22352 0
-759 -21465 -22353 0
-757 -29413 -30451 0
-758 -29414 -30452 0
-759 -29415 -30453 0
-757 -39403 -40603 0
-758 -39404 -40604 0
-759 -39405 -40605 0
-1483 -2653 -3081 0
-1484 -2654 -3082 0
-1485 -2655 -3083 0
-1483 -4423 -4971 0
-1484 -4424 -4972 0
-1485 -4425 -4973 0
-1483 -6973 -7657 0
-1484 -6974 -7658 0
-1485 -6975 -7659 0
-1483 -10507 -11343 0
-1484 -10508 -11344 0
-1485 -10509 -11345 0
-1483 -15253 -16257 0
-1484 -15254 -16258 0
-1485 -15255 -16259 0
-1483 -21463 -22651 0
-1484 -21464 -22652 0
-1485 -21465 -22653 0
-1483 -29413 -30801 0
-1484 -29414 -30802 0
-1485 -29415 -30803 0
-1483 -39403 -41007 0
-1484 -39404 -41008 0
-1485 -39405 -41009 0
-2653 -4423 -5113 0
-2654 -4424 -5114 0
-2655 -4425 -5115 0
-2653 -6973 -7833 0
-2654 -6974 -7834 0
-2655 -6975 -7835 0
-2653 -10507 -11557 0
-2654 -10508 -11558 0
-2655 -10509 -11559 0
-2653 -15253 -16513 0
-2654 -15254 -16514 0
-2655 -15255 -16515 0
-2653 -21463 -22953 0
-2654 -21464 -22954 0
-2655 -21465 -22955 0
-2653 -29413 -31153 0
-2654 -29414 -31154 0
-2655 -29415 -31155 0
-2653 -39403 -41413 0
-2654 -39404 -41414 0
-2655 -39405 -41415 0
-4423 -6973 -8011 0
-4424 -6974 -8012 0
-4425 -6975 -8013 0
-4423 -10507 -11773 0
-4424 -10508 -11774 0
-4425 -10509 -11775 0
-4423 -15253 -16771 0
-4424 -15254 -16772 0
-4425 -15255 -16773 0
-4423 -21463 -23257 0
-4424 -21464 -23258 0
-4425 -21465 -23259 0
-4423 -29413 -31507 0
-4424 -29414 -31508 0
-4425 -29415 -31509 0
-4423 -39403 -41821 0
-4424 -39404 -41822 0
-4425 -39405 -41823 0
-6973 -10507 -11991 0
-6974 -10508 -11992 0
-6975 -10509 -11993 0
-6973 -15253 -17031 0
-6974 -15254 -17032 0
-6975 -15255 -17033 0
-6973 -21463 -23563 0
-6974 -21464 -23564 0
-6975 -21465 -23565 0
-6973 -29413 -31863 0
-6974 -29414 -31864 0
-6975 -29415 -31865 0
-6973 -39403 -42231 0
-6974 -39404 -42232 0
-6975 -39405 -42233 0
-10507 -15253 -17293 0
-10508 -15254 -17294 0
-10509 -15255 -17295 0
-10507 -21463 -23871 0
-10508 -21464 -23872 0
-10509 -21465 -23873 0
-10507 -29413 -32221 0
-10508 -29414 -32222 0
-10509 -29415 -32223 0
-10507 -39403 -42643 0
-10508 -39404 -42644 0
-10509 -39405 -42645 0
-15253 -21463 -24181 0
-15254 -21464 -24182 0
-15255 -21465 -24183 0
-15253 -29413 -32581 0
-15254 -29414 -32582 0
-15255 -29415 -32583 0
-15253 -39403 -43057 0
-15254 -39404 -43058 0
-15255 -39405 -43059 0
-21463 -29413 -32943 0
-21464 -29414 -32944 0
-21465 -29415 -32945 0
-21463 -39403 -43473 0
-21464 -39404 -43474 0
-21465 -39405 -43475 0
-29413 -39403 -43891 0
-29414 -39404 -43892 0
-29415 -39405 -43893 0
-381 -813 -871 0
-382 -814 -872 0
-383 -815 -873 0
-381 -1561 -1641 0
-382 -1562 -1642 0
-383 -1563 -1643 0
-381 -2757 -2863 0
-382 -2758 -2864 0
-383 -2759 -2865 0
-381 -4557 -4693 0
-382 -4558 -4694 0
-383 -4559 -4695 0
-381 -7141 -7311 0
-382 -7142 -7312 0
-383 -7143 -7313 0
-381 -10713 -10921 0
-382 -10714 -10922 0
-383 -10715 -10923 0
-381 -15501 -15751 0
-382 -15502 -15752 0
-383 -15503 -15753 0
-381 -21757 -22053 0
-382 -21758 -22054 0
-383 -21759 -22055 0
-381 -29757 -30103 0
-382 -29758 -30104 0
-383 -29759 -30105 0
-381 -39801 -40201 0
-382 -39802 -40202 0
-383 -39803 -40203 0
-813 -1561 -1723 0
-814 -1562 -1724 0
-815 -1563 -1725 0
-813 -2757 -2971 0
-814 -2758 -2972 0
-815 -2759 -2973 0
-813 -4557 -4831 0
-814 -4558 -4832 0
-815 -4559 -4833 0
-813 -7141 -7483 0
-814 -7142 -7484 0
-815 -7143 -7485 0
-813 -10713 -11131 0
-814 -10714 -11132 0
-815 -10715 -11133 0
-813 -15501 -16003 0
-814 -15502 -16004 0
-815 -15503 -16005 0
-813 -21757 -22351 0
-814 -21758 -22352 0
-815 -21759 -22353 0
-813 -29757 -30451 0
-814 -29758 -30452 0
-815 -29759 -30453 0
-813 -39801 -40603 0
-814 -39802 -40604 0
-815 -39803 -40605 0
-1561 -2757 -3081 0
-1562 -2758 -3082 0
-1563 -2759 -3083 0
-1561 -4557 -4971 0
-1562 -4558 -4972 0
-1563 -4559 -4973 0
-1561 -7141 -7657 0
-1562 -7142 -7658 0
-1563 -7143 -7659 0
-1561 -10713 -11343 0
-1562 -10714 -11344 0
-1563 -10715 -11345 0
-1561 -15501 -16257 0
-1562 -15502 -16258 0
-1563 -15503 -16259 0
-1561 -21757 -22651 0
-1562 -21758 -22652 0
-1563 -21759 -22653 0
-1561 -29757 -30801 0
-1562 -29758 -30802 0
-1563 -29759 -30803 0
-1561 -39801 -41007 0
-1562 -39802 -41008 0
-1563 -39803 -41009 0
-2757 -4557 -5113 0
-2758 -4558 -5114 0
-2759 -4559 -5115 0
-2757 -7141 -7833 0
-2758 -7142 -7834 0
-2759 -7143 -7835 0
-2757 -10713 -11557 0
-2758 -10714 -11558 0
-2759 -10715 -11559 0
-2757 -15501 -16513 0
-2758 -15502 -16514 0
-2759 -15503 -16515 0
-2757 -21757 -22953 0
-2758 -21758 -22954 0
-2759 -21759 -22955 0
-2757 -29757 -31153 0
-2758 -29758 -31154 0
-2759 -29759 -31155 0
-2757 -39801 -41413 0
-2758 -39802 -41414 0
-2759 -39803 -41415 0
-4557 -7141 -8011 0
-4558 -7142 -8012 0
-4559 -7143 -8013 0
-4557 -10713 -11773 0
-4558 -10714 -11774 0
-4559 -10715 -11775 0
-4557 -15501 -16771 0
-4558 -15502 -16772 0
-4559 -15503 -16773 0
-4557 -21757 -23257 0
-4558 -21758 -23258 0
-4559 -21759 -23259 0
-4557 -29757 -31507 0
-4558 -29758 -31508 0
-4559 -29759 -31509 0
-4557 -39801 -41821 0
-4558 -39802 -41822 0
-4559 -39803 -41823 0
-7141 -10713 -11991 0
-7142 -10714 -11992 0
-7143 -10715 -11993 0
-7141 -15501 -17031 0
-7142 -15502 -17032 0
-7143 -15503 -17033 0
-7141 -21757 -23563 0
-7142 -21758 -23564 0
-7143 -21759 -23565 0
-7141 -29757 -31863 0
-7142 -29758 -31864 0
-7143 -29759 -31865 0
-7141 -39801 -42231 0
-7142 -39802 -42232 0
-7143 -39803 -42233 0
-10713 -15501 -17293 0
-10714 -15502 -17294 0
-10715 -15503 -17295 0
-10713 -21757 -23871 0
-10714 -21758 -23872 0
-10715 -21759 -23873 0
-10713 -29757 -32221 0
-10714 -29758 -32222 0
-10715 -29759 -32223 0
-10713 -39801 -42643 0
-10714 -39802 -42644 0
-10715 -39803 -42645 0
-15501 -21757 -24181 0
-15502 -21758 -24182 0
-15503 -21759 -24183 0
-15501 -29757 -32581 0
-15502 -29758 -32582 0
-15503 -29759 -32583 0
-15501 -39801 -43057 0
-15502 -39802 -43058 0
-15503 -39803 -43059 0
-21757 -29757 -32943 0
-21758 -29758 -32944 0
-21759 -29759 -32945 0
-21757 -39801 -43473 0
-21758 -39802 -43474 0
-21759 -39803 -43475 0
-29757 -39801 -43891 0
-29758 -39802 -43892 0
-29759 -39803 -43893 0
-871 -1641 -1723 0
-872 -1642 -1724 0
-873 -1643 -1725 0
-871 -2863 -2971 0
-872 -2864 -2972 0
-873 -2865 -2973 0
-871 -4693 -4831 0
-872 -4694 -4832 0
-873 -4695 -4833 0
-871 -7311 -7483 0
-872 -7312 -7484 0
-873 -7313 -7485 0
-871 -10921 -11131 0
-872 -10922 -11132 0
-873 -10923 -11133 0
-871 -15751 -16003 0
-872 -15752 -16004 0
-873 -15753 -16005 0
-871 -22053 -22351 0
-872 -22054 -22352 0
-873 -22055 -22353 0
-871 -30103 -30451 0
-872 -30104 -30452 0
-873 -30105 -30453 0
-871 -40201 -40603 0
-872 -40202 -40604 0
-873 -40203 -40605 0
-1641 -2863 -3081 0
-1642 -2864 -3082 0
-1643 -2865 -3083 0
-1641 -4693 -4971 0
-1642 -4694 -4972 0
-1643 -4695 -4973 0
-1641 -7311 -7657 0
-1642 -7312 -7658 0
-1643 -7313 -7659 0
-1641 -10921 -11343 0
-1642 -10922 -11344 0
-1643 -10923 -11345 0
-1641 -15751 -16257 0
-1642 -15752 -16258 0
-1643 -15753 -16259 0
-1641 -22053 -22651 0
-1642 -22054 -22652 0
-1643 -22055 -22653 0
-1641 -30103 -30801 0
-1642 -30104 -30802 0
-1643 -30105 -30803 0
-1641 -40201 -41007 0
-1642 -40202 -41008 0
-1643 -40203 -41009 0
-2863 -4693 -5113 0
-2864 -4694 -5114 0
-2865 -4695 -5115 0
-2863 -7311 -7833 0
-2864 -7312 -7834 0
-2865 -7313 -7835 0
-2863 -10921 -11557 0
-2864 -10922 -11558 0
-2865 -10923 -11559 0
-2863 -15751 -16513 0
-2864 -15752 -16514 0
-2865 -15753 -16515 0
-2863 -22053 -22953 0
-2864 -22054 -22954 0
-2865 -22055 -22955 0
-2863 -30103 -31153 0
-2864 -30104 -31154 0
-2865 -30105 -31155 0
-2863 -40201 -41413 0
-2864 -40202 -41414 0
-2865 -40203 -41415 0
-4693 -7311 -8011 0
-4694 -7312 -8012 0
-4695 -7313 -8013 0
-4693 -10921 -11773 0
-4694 -10922 -11774 0
-4695 -10923 -11775 0
-4693 -15751 -16771 0
-4694 -15752 -16772 0
-4695 -15753 -16773 0
-4693 -22053 -23257 0
-4694 -22054 -23258 0
-4695 -22055 -23259 0
-4693 -30103 -31507 0
-4694 -30104 -31508 0
-4695 -30105 -31509 0
-4693 -40201 -41821 0
-4694 -40202 -41822 0
-4695 -40203 -41823 0
-7311 -10921 -11991 0
-7312 -10922 -11992 0
-7313 -10923 -11993 0
-7311 -15751 -17031 0
-7312 -15752 -17032 0
-7313 -15753 -17033 0
-7311 -22053 -23563 0
-7312 -22054 -23564 0
-7313 -22055 -23565 0
-7311 -30103 -31863 0
-7312 -30104 -31864 0
-7313 -30105 -31865 0
-7311 -40201 -42231 0
-7312 -40202 -42232 0
-7313 -40203 -42233 0
-10921 -15751 -17293 0
-10922 -15752 -17294 0
-10923 -15753 -17295 0
-10921 -22053 -23871 0
-10922 -22054 -23872 0
-10923 -22055 -23873 0
-10921 -30103 -32221 0
-10922 -30104 -32222 0
-10923 -30105 -32223 0
-10921 -40201 -42643 0
-10922 -40202 -42644 0
-10923 -40203 -42645 0
-15751 -22053 -24181 0
-15752 -22054 -24182 0
-15753 -22055 -24183 0
-15751 -30103 -32581 0
-15752 -30104 -32582 0
-15753 -30105 -32583 0
-15751 -40201 -43057 0
-15752 -40202 -43058 0
-15753 -40203 -43059 0
-22053 -30103 -32943 0
-22054 -30104 -32944 0
-22055 -30105 -32945 0
-22053 -40201 -43473 0
-22054 -40202 -43474 0
-22055 -40203 -43475 0
-30103 -40201 -43891 0
-30104 -40202 -43892 0
-30105 -40203 -43893 0
-1723 -2971 -3081 0
-1724 -2972 -3082 0
-1725 -2973 -3083 0
-1723 -4831 -4971 0
-1724 -4832 -4972 0
-1725 -4833 -4973 0
-1723 -7483 -7657 0
-1724 -7484 -7658 0
-1725 -7485 -7659 0
-1723 -11131 -11343 0
-1724 -11132 -11344 0
-1725 -11133 -11345 0
-1723 -16003 -16257 0
-1724 -16004 -16258 0
-1725 -16005 -16259 0
-1723 -22351 -22651 0
-1724 -22352 -22652 0
-1725 -22353 -22653 0
-1723 -30451 -30801 0
-1724 -30452 -30802 0
-1725 -30453 -30803 0
-1723 -40603 -41007 0
-1724 -40604 -41008 0
-1725 -40605 -41009 0
-2971 -4831 -5113 0
-2972 -4832 -5114 0
-2973 -4833 -5115 0
-2971 -7483 -7833 0
-2972 -7484 -7834 0
-2973 -7485 -7835 0
-2971 -11131 -11557 0
-2972 -11132 -11558 0
-2973 -11133 -11559 0
-2971 -16003 -16513 0
-2972 -16004 -16514 0
-2973 -16005 -16515 0
-2971 -22351 -22953 0
-2972 -22352 -22954 0
-2973 -22353 -22955 0
-2971 -30451 -31153 0
-2972 -30452 -31154 0
-2973 -30453 -31155 0
-2971 -40603 -41413 0
-2972 -40604 -41414 0
-2973 -40605 -41415 0
-4831 -7483 -8011 0
-4832 -7484 -8012 0
-4833 -7485 -8013 0
-4831 -11131 -11773 0
-4832 -11132 -11774 0
-4833 -11133 -11775 0
-4831 -16003 -16771 0
-4832 -16004 -16772 0
-4833 -16005 -16773 0
-4831 -22351 -23257 0
-4832 -22352 -23258 0
-4833 -22353 -23259 0
-4831 -30451 -31507 0
-4832 -30452 -31508 0
-4833 -30453 -31509 0
-4831 -40603 -41821 0
-4832 -40604 -41822 0
-4833 -40605 -41823 0
-7483 -11131 -11991 0
-7484 -11132 -11992 0
-7485 -11133 -11993 0
-7483 -16003 -17031 0
-7484 -16004 -17032 0
-7485 -16005 -17033 0
-7483 -22351 -23563 0
-7484 -22352 -23564 0
-7485 -22353 -23565 0
-7483 -30451 -31863 0
-7484 -30452 -31864 0
-7485 -30453 -31865 0
-7483 -40603 -42231 0
-7484 -40604 -42232 0
-7485 -40605 -42233 0
-11131 -16003 -17293 0
-11132 -16004 -17294 0
-11133 -16005 -17295 0
-11131 -22351 -23871 0
-11132 -22352 -23872 0
-11133 -22353 -23873 0
-11131 -30451 -32221 0
-11132 -30452 -32222 0
-11133 -30453 -32223 0
-11131 -40603 -42643 0
-11132 -40604 -42644 0
-11133 -40605 -42645 0
-16003 -22351 -24181 0
-16004 -22352 -24182 0
-16005 -22353 -24183 0
-16003 -30451 -32581 0
-16004 -30452 -32582 0
-16005 -30453 -32583 0
-16003 -40603 -43057 0
-16004 -40604 -43058 0
-16005 -40605 -43059 0
-22351 -30451 -32943 0
-22352 -30452 -32944 0
-22353 -30453 -32945 0
-22351 -40603 -43473 0
-22352 -40604 -43474 0
-22353 -40605 -43475 0
-30451 -40603 -43891 0
-30452 -40604 -43892 0
-30453 -40605 -43893 0
-3081 -4971 -5113 0
-3082 -4972 -5114 0
-3083 -4973 -5115 0
-3081 -7657 -7833 0
-3082 -7658 -7834 0
-3083 -7659 -7835 0
-3081 -11343 -11557 0
-3082 -11344 -11558 0
-3083 -11345 -11559 0
-3081 -16257 -16513 0
-3082 -16258 -16514 0
-3083 -16259 -16515 0
-3081 -22651 -22953 0
-3082 -22652 -22954 0
-3083 -22653 -22955 0
-3081 -30801 -31153 0
-3082 -30802 -31154 0
-3083 -30803 -31155 0
-3081 -41007 -41413 0
-3082 -41008 -41414 0
-3083 -41009 -41415 0
-4971 -7657 -8011 0
-4972 -7658 -8012 0
-4973 -7659 -8013 0
-4971 -11343 -11773 0
-4972 -11344 -11774 0
-4973 -11345 -11775 0
-4971 -16257 -16771 0
-4972 -16258 -16772 0
-4973 -16259 -16773 0
-4971 -22651 -23257 0
-4972 -22652 -23258 0
-4973 -22653 -23259 0
-4971 -30801 -31507 0
-4972 -30802 -31508 0
-4973 -30803 -31509 0
-4971 -41007 -41821 0
-4972 -41008 -41822 0
-4973 -41009 -41823 0
-7657 -11343 -11991 0
-7658 -11344 -11992 0
-7659 -11345 -11993 0
-7657 -16257 -17031 0
-7658 -16258 -17032 0
-7659 -16259 -17033 0
-7657 -22651 -23563 0
-7658 -22652 -23564 0
-7659 -22653 -23565 0
-7657 -30801 -31863 0
-7658 -30802 -31864 0
-7659 -30803 -31865 0
-7657 -41007 -42231 0
-7658 -41008 -42232 0
-7659 -41009 -42233 0
-11343 -16257 -17293 0
-11344 -16258 -17294 0
-11345 -16259 -17295 0
-11343 -22651 -23871 0
-11344 -22652 -23872 0
-11345 -22653 -23873 0
-11343 -30801 -32221 0
-11344 -30802 -32222 0
-11345 -30803 -32223 0
-11343 -41007 -42643 0
-11344 -41008 -42644 0
-11345 -41009 -42645 0
-16257 -22651 -24181 0
-16258 -22652 -24182 0
-16259 -22653 -24183 0
-16257 -30801 -32581 0
-16258 -30802 -32582 0
-16259 -30803 -32583 0
-16257 -41007 -43057 0
-16258 -41008 -43058 0
-16259 -41009 -43059 0
-22651 -30801 -32943 0
-22652 -30802 -32944 0
-22653 -30803 -32945 0
-22651 -41007 -43473 0
-22652 -41008 -43474 0
-22653 -41009 -43475 0
-30801 -41007 -43891 0
-30802 -41008 -43892 0
-30803 -41009 -43893 0
-5113 -7833 -8011 0
-5114 -7834 -8012 0
-5115 -7835 -8013 0
-5113 -11557 -11773 0
-5114 -11558 -11774 0
-5115 -11559 -11775 0
-5113 -16513 -16771 0
-5114 -16514 -16772 0
-5115 -16515 -16773 0
-5113 -22953 -23257 0
-5114 -22954 -23258 0
-5115 -22955 -23259 0
-5113 -31153 -31507 0
-5114 -31154 -31508 0
-5115 -31155 -31509 0
-5113 -41413 -41821 0
-5114 -41414 -41822 0
-5115 -41415 -41823 0
-7833 -11557 -11991 0
-7834 -11558 -11992 0
-7835 -11559 -11993 0
-7833 -16513 -17031 0
-7834 -16514 -17032 0
-7835 -16515 -17033 0
-7833 -22953 -23563 0
-7834 -22954 -23564 0
-7835 -22955 -23565 0
-7833 -31153 -31863 0
-7834 -31154 -31864 0
-7835 -31155 -31865 0
-7833 -41413 -42231 0
-7834 -41414 -42232 0
-7835 -41415 -42233 0
-11557 -16513 -17293 0
-11558 -16514 -17294 0
-11559 -16515 -17295 0
-11557 -22953 -23871 0
-11558 -22954 -23872 0
-11559 -22955 -23873 0
-11557 -31153 -32221 0
-11558 -31154 -32222 0
-11559 -31155 -32223 0
-11557 -41413 -42643 0
-11558 -41414 -42644 0
-11559 -41415 -42645 0
-16513 -22953 -24181 0
-16514 -22954 -24182 0
-16515 -22955 -24183 0
-16513 -31153 -32581 0
-16514 -31154 -32582 0
-16515 -31155 -32583 0
-16513 -41413 -43057 0
-16514 -41414 -43058 0
-16515 -41415 -43059 0
-22953 -31153 -32943 0
-22954 -31154 -32944 0
-22955 -31155 -32945 0
-22953 -41413 -43473 0
-22954 -41414 -43474 0
-22955 -41415 -43475 0
-31153 -41413 -43891 0
-31154 -41414 -43892 0
-31155 -41415 -43893 0
-8011 -11773 -11991 0
-8012 -11774 -11992 0
-8013 -11775 -11993 0
-8011 -16771 -17031 0
-8012 -16772 -17032 0
-8013 -16773 -17033 0
-8011 -23257 -23563 0
-8012 -23258 -23564 0
-8013 -23259 -23565 0
-8011 -31507 -31863 0
-8012 -31508 -31864 0
-8013 -31509 -31865 0
-8011 -41821 -42231 0
-8012 -41822 -42232 0
-8013 -41823 -42233 0
-11773 -16771 -17293 0
-11774 -16772 -17294 0
-11775 -16773 -17295 0
-11773 -23257 -23871 0
-11774 -23258 -23872 0
-11775 -23259 -23873 0
-11773 -31507 -32221 0
-11774 -31508 -32222 0
-11775 -31509 -32223 0
-11773 -41821 -42643 0
-11774 -41822 -42644 0
-11775 -41823 -42645 0
-16771 -23257 -24181 0
-16772 -23258 -24182 0
-16773 -23259 -24183 0
-16771 -31507 -32581 0
-16772 -31508 -32582 0
-16773 -31509 -32583 0
-16771 -41821 -43057 0
-16772 -41822 -43058 0
-16773 -41823 -43059 0
-23257 -31507 -32943 0
-23258 -31508 -32944 0
-23259 -31509 -32945 0
-23257 -41821 -43473 0
-23258 -41822 -43474 0
-23259 -41823 -43475 0
-31507 -41821 -43891 0
-31508 -41822 -43892 0
-31509 -41823 -43893 0
-11991 -17031 -17293 0
-11992 -17032 -17294 0
-11993 -17033 -17295 0
-11991 -23563 -23871 0
-11992 -23564 -23872 0
-11993 -23565 -23873 0
-11991 -31863 -32221 0
-11992 -31864 -32222 0
-11993 -31865 -32223 0
-11991 -42231 -42643 0
-11992 -42232 -42644 0
-11993 -42233 -42645 0
-17031 -23563 -24181 0
-17032 -23564 -24182 0
-17033 -23565 -24183 0
-17031 -31863 -32581 0
-17032 -31864 -32582 0
-17033 -31865 -32583 0
-17031 -42231 -43057 0
-17032 -42232 -43058 0
-17033 -42233 -43059 0
-23563 -31863 -32943 0
-23564 -31864 -32944 0
-23565 -31865 -32945 0
-23563 -42231 -43473 0
-23564 -42232 -43474 0
-23565 -42233 -43475 0
-31863 -42231 -43891 0
-31864 -42232 -43892 0
-31865 -42233 -43893 0
-17293 -23871 -24181 0
-17294 -23872 -24182 0
-17295 -23873 -24183 0
-17293 -32221 -32581 0
-17294 -32222 -32582 0
-17295 -32223 -32583 0
-17293 -42643 -43057 0
-17294 -42644 -43058 0
-17295 -42645 -43059 0
-23871 -32221 -32943 0
-23872 -32222 -32944 0
-23873 -32223 -32945 0
-23871 -42643 -43473 0
-23872 -42644 -43474 0
-23873 -42645 -43475 0
-32221 -42643 -43891 0
-32222 -42644 -43892 0
-32223 -42645 -43893 0
-24181 -32581 -32943 0
-24182 -32582 -32944 0
-24183 -32583 -32945 0
-24181 -43057 -43473 0
-24182 -43058 -43474 0
-24183 -43059 -43475 0
-32581 -43057 -43891 0
-32582 -43058 -43892 0
-32583 -43059 -43893 0
-32943 -43473 -43891 0
-32944 -43474 -43892 0
-32945 -43475 -43893 0
3 0
21 0
91 0
273 0
652 0
1334 0
2452 0
4162 0
6644 0
10103 0
14765 0
20883 0
28733 0
38615 0
-31 0
-111 0
-307 0
703 0
1407 0
-2551 0
-4291 0
-6807 0
10303 0
-15007 0
-21171 0
-29071 0
-39007 0
32 0
112 0
308 0
2552 0
4292 0
6809 0
15009 0
21173 0
29073 0
39009 0
