p cnf 80 392
1 2 11 0
-1 -2 -11 0
1 3 12 0
-1 -3 -12 0
1 5 14 0
-1 -5 -14 0
1 6 15 0
-1 -6 -15 0
1 8 17 0
-1 -8 -17 0
1 10 19 0
-1 -10 -19 0
2 3 20 0
-2 -3 -20 0
2 4 22 0
-2 -4 -22 0
2 7 23 0
-2 -7 -23 0
2 8 25 0
-2 -8 -25 0
2 10 27 0
-2 -10 -27 0
3 4 29 0
-3 -4 -29 0
3 5 30 0
-3 -5 -30 0
3 6 32 0
-3 -6 -32 0
3 7 33 0
-3 -7 -33 0
4 5 42 0
-4 -5 -42 0
4 7 44 0
-4 -7 -44 0
4 9 46 0
-4 -9 -46 0
4 10 47 0
-4 -10 -47 0
5 6 49 0
-5 -6 -49 0
5 9 51 0
-5 -9 -51 0
5 10 52 0
-5 -10 -52 0
6 7 59 0
-6 -7 -59 0
6 8 61 0
-6 -8 -61 0
6 9 63 0
-6 -9 -63 0
7 8 65 0
-7 -8 -65 0
7 9 67 0
-7 -9 -67 0
8 9 73 0
-8 -9 -73 0
8 10 74 0
-8 -10 -74 0
9 10 80 0
-9 -10 -80 0
11 12 20 0
-11 -12 -20 0
11 13 21 0
-11 -13 -21 0
11 16 24 0
-11 -16 -24 0
11 17 25 0
-11 -17 -25 0
11 19 27 0
-11 -19 -27 0
12 13 28 0
-12 -13 -28 0
12 14 30 0
-12 -14 -30 0
12 15 32 0
-12 -15 -32 0
12 16 34 0
-12 -16 -34 0
13 14 36 0
-13 -14 -36 0
13 16 38 0
-13 -16 -38 0
13 18 40 0
-13 -18 -40 0
13 19 41 0
-13 -19 -41 0
14 15 49 0
-14 -15 -49 0
14 18 50 0
-14 -18 -50 0
14 19 52 0
-14 -19 -52 0
15 16 60 0
-15 -16 -60 0
15 17 61 0
-15 -17 -61 0
15 18 62 0
-15 -18 -62 0
16 17 68 0
-16 -17 -68 0
16 18 70 0
-16 -18 -70 0
17 18 72 0
-17 -18 -72 0
17 19 74 0
-17 -19 -74 0
18 19 79 0
-18 -19 -79 0
20 21 28 0
-20 -21 -28 0
20 22 29 0
-20 -22 -29 0
20 23 33 0
-20 -23 -33 0
20 24 34 0
-20 -24 -34 0
21 22 35 0
-21 -22 -35 0
21 24 38 0
-21 -24 -38 0
21 26 39 0
-21 -26 -39 0
21 27 41 0
-21 -27 -41 0
22 23 44 0
-22 -23 -44 0
22 26 45 0
-22 -26 -45 0
22 27 47 0
-22 -27 -47 0
23 24 64 0
-23 -24 -64 0
23 25 65 0
-23 -25 -65 0
23 26 66 0
-23 -26 -66 0
24 25 68 0
-24 -25 -68 0
24 26 69 0
-24 -26 -69 0
25 26 71 0
-25 -26 -71 0
25 27 74 0
-25 -27 -74 0
26 27 77 0
-26 -27 -77 0
28 29 35 0
-28 -29 -35 0
28 30 36 0
-28 -30 -36 0
28 31 37 0
-28 -31 -37 0
28 34 38 0
-28 -34 -38 0
29 30 42 0
-29 -30 -42 0
29 31 43 0
-29 -31 -43 0
29 33 44 0
-29 -33 -44 0
30 31 48 0
-30 -31 -48 0
30 32 49 0
-30 -32 -49 0
31 32 53 0
-31 -32 -53 0
31 33 54 0
-31 -33 -54 0
31 34 55 0
-31 -34 -55 0
32 33 59 0
-32 -33 -59 0
32 34 60 0
-32 -34 -60 0
33 34 64 0
-33 -34 -64 0
35 36 42 0
-35 -36 -42 0
35 37 43 0
-35 -37 -43 0
35 39 45 0
-35 -39 -45 0
35 41 47 0
-35 -41 -47 0
36 37 48 0
-36 -37 -48 0
36 40 50 0
-36 -40 -50 0
36 41 52 0
-36 -41 -52 0
37 38 55 0
-37 -38 -55 0
37 39 56 0
-37 -39 -56 0
37 40 57 0
-37 -40 -57 0
38 39 69 0
-38 -39 -69 0
38 40 70 0
-38 -40 -70 0
39 40 75 0
-39 -40 -75 0
39 41 77 0
-39 -41 -77 0
40 41 79 0
-40 -41 -79 0
42 43 48 0
-42 -43 -48 0
42 46 51 0
-42 -46 -51 0
42 47 52 0
-42 -47 -52 0
43 44 54 0
-43 -44 -54 0
43 45 56 0
-43 -45 -56 0
43 46 58 0
-43 -46 -58 0
44 45 66 0
-44 -45 -66 0
44 46 67 0
-44 -46 -67 0
45 46 76 0
-45 -46 -76 0
45 47 77 0
-45 -47 -77 0
46 47 80 0
-46 -47 -80 0
48 49 53 0
-48 -49 -53 0
48 50 57 0
-48 -50 -57 0
48 51 58 0
-48 -51 -58 0
49 50 62 0
-49 -50 -62 0
49 51 63 0
-49 -51 -63 0
50 51 78 0
-50 -51 -78 0
50 52 79 0
-50 -52 -79 0
51 52 80 0
-51 -52 -80 0
53 54 59 0
-53 -54 -59 0
53 55 60 0
-53 -55 -60 0
53 57 62 0
-53 -57 -62 0
53 58 63 0
-53 -58 -63 0
54 55 64 0
-54 -55 -64 0
54 56 66 0
-54 -56 -66 0
54 58 67 0
-54 -58 -67 0
55 56 69 0
-55 -56 -69 0
55 57 70 0
-55 -57 -70 0
56 57 75 0
-56 -57 -75 0
56 58 76 0
-56 -58 -76 0
57 58 78 0
-57 -58 -78 0
59 60 64 0
-59 -60 -64 0
59 61 65 0
-59 -61 -65 0
59 63 67 0
-59 -63 -67 0
60 61 68 0
-60 -61 -68 0
60 62 70 0
-60 -62 -70 0
61 62 72 0
-61 -62 -72 0
61 63 73 0
-61 -63 -73 0
62 63 78 0
-62 -63 -78 0
64 65 68 0
-64 -65 -68 0
64 66 69 0
-64 -66 -69 0
65 66 71 0
-65 -66 -71 0
65 67 73 0
-65 -67 -73 0
66 67 76 0
-66 -67 -76 0
68 69 71 0
-68 -69 -71 0
68 70 72 0
-68 -70 -72 0
69 70 75 0
-69 -70 -75 0
71 72 75 0
-71 -72 -75 0
71 73 76 0
-71 -73 -76 0
71 74 77 0
-71 -74 -77 0
72 73 78 0
-72 -73 -78 0
72 74 79 0
-72 -74 -79 0
73 74 80 0
-73 -74 -80 0
75 76 78 0
-75 -76 -78 0
75 77 79 0
-75 -77 -79 0
76 77 80 0
-76 -77 -80 0
78 79 80 0
-78 -79 -80 0
1 2 -3 4 -5 6 -7 -8 9 -10 -11 12 13 -14 -15 -16 17 18 -19 20 -21 -22 -23 24 -25 26 27 -28 -29 30 31 -32 33 -34 35 36 -37 38 39 -40 -41 -42 43 44 -45 -46 47 -48 49 -50 51 52 53 -54 -55 56 57 -58 -59 60 61 -62 -63 64 65 -66 67 -68 -69 70 71 -72 -73 74 -75 76 -77 78 79 -80 0
1 2 -3 4 -5 6 -7 -8 9 -10 -11 12 13 -14 -15 -16 17 18 -19 20 -21 -22 -23 24 -25 26 27 -28 -29 30 31 -32 33 -34 35 36 -37 38 39 -40 -41 -42 43 44 -45 -46 47 -48 49 -50 51 52 -53 -54 55 -56 57 58 59 60 -61 62 -63 -64 65 66 -67 68 -69 -70 -71 -72 73 74 75 76 -77 -78 79 -80 0
1 2 -3 4 -5 6 -7 -8 9 -10 -11 12 13 -14 -15 -16 17 18 -19 20 -21 -22 -23 24 -25 26 27 -28 -29 30 31 -32 33 -34 35 -36 37 38 -39 -40 41 42 -43 44 45 -46 -47 -48 49 50 -51 52 53 -54 -55 56 -57 58 -59 60 61 -62 -63 64 65 -66 67 -68 -69 70 71 -72 -73 74 75 -76 -77 78 -79 80 0
1 2 -3 4 -5 6 -7 -8 9 -10 -11 12 13 -14 -15 -16 17 18 -19 -20 21 -22 23 24 -25 -26 27 -28 29 30 -31 -32 33 34 -35 36 37 -38 39 -40 -41 -42 43 -44 45 -46 47 -48 49 -50 51 52 53 54 -55 -56 57 -58 -59 60 61 -62 -63 -64 65 -66 67 -68 69 70 71 -72 -73 74 -75 76 -77 78 79 -80 0
1 2 -3 4 -5 6 -7 -8 9 -10 -11 12 -13 -14 -15 16 -17 18 19 20 21 -22 -23 -24 25 26 -27 -28 -29 30 31 -32 33 -34 35 36 -37 38 -39 40 -41 -42 43 44 -45 -46 47 -48 49 -50 51 52 53 -54 -55 56 57 -58 -59 60 61 -62 -63 64 65 -66 67 -68 69 -70 -71 72 -73 74 -75 76 77 78 -79 -80 0
1 2 -3 4 -5 6 -7 -8 9 -10 -11 -12 13 14 -15 16 17 -18 -19 20 -21 -22 -23 24 -25 26 27 28 -29 30 -31 32 33 -34 35 -36 -37 -38 39 40 -41 -42 43 44 -45 -46 47 48 -49 -50 51 52 53 -54 55 56 -57 -58 -59 -60 61 62 -63 64 65 -66 67 -68 -69 70 71 -72 -73 74 -75 76 -77 78 79 -80 0
1 2 -3 -4 5 -6 7 -8 9 -10 -11 12 13 -14 -15 -16 17 18 -19 20 -21 -22 -23 24 -25 26 27 -28 29 -30 31 32 -33 -34 35 36 -37 38 39 -40 -41 -42 -43 44 -45 46 47 48 49 -50 -51 52 -53 54 -55 56 57 -58 -59 60 61 -62 63 64 65 -66 -67 -68 -69 70 71 -72 -73 74 -75 76 -77 78 79 -80 0
1 2 -3 -4 5 -6 7 -8 9 -10 -11 12 -13 -14 -15 16 -17 18 19 20 21 -22 -23 -24 25 26 -27 -28 29 -30 31 32 -33 -34 35 36 -37 38 -39 40 -41 -42 -43 44 -45 46 47 48 49 -50 -51 52 -53 54 -55 56 57 -58 -59 60 61 -62 63 64 65 -66 -67 -68 69 -70 -71 72 -73 74 -75 76 77 78 -79 -80 0
1 2 -3 -4 5 -6 7 -8 9 -10 -11 12 -13 -14 -15 16 -17 18 19 20 21 -22 -23 -24 25 26 -27 -28 29 -30 31 32 -33 -34 35 36 -37 38 -39 40 -41 -42 -43 44 -45 46 47 48 49 -50 -51 52 -53 -54 55 56 -57 58 59 -60 61 62 -63 64 -65 66 -67 68 -69 -70 -71 -72 73 74 75 -76 77 78 -79 -80 0
1 2 -3 -4 5 -6 7 -8 9 -10 -11 12 -13 -14 -15 16 -17 18 19 20 21 -22 -23 -24 25 26 -27 -28 29 -30 31 32 -33 -34 -35 36 37 38 -39 -40 41 42 -43 44 45 -46 47 -48 49 50 -51 -52 -53 54 -55 -56 57 58 -59 60 61 -62 63 64 65 -66 -67 -68 69 -70 -71 72 -73 74 75 76 -77 -78 -79 80 0
1 2 -3 -4 5 -6 7 -8 9 -10 -11 12 -13 -14 -15 16 -17 18 19 -20 21 22 -23 24 25 -26 -27 28 29 -30 -31 32 33 -34 -35 36 -37 -38 39 40 -41 -42 43 -44 -45 46 47 48 49 -50 -51 52 -53 54 55 -56 57 -58 -59 60 61 -62 63 -64 65 66 -67 -68 69 -70 -71 72 -73 74 -75 76 77 78 -79 -80 0
1 2 -3 -4 5 -6 7 -8 9 -10 -11 -12 13 -14 15 16 -17 -18 19 20 21 -22 -23 -24 25 26 -27 -28 29 30 -31 32 -33 34 35 -36 37 -38 -39 40 -41 -42 -43 44 -45 46 47 48 -49 50 -51 52 53 54 -55 56 -57 -58 -59 -60 61 -62 63 64 65 -66 -67 -68 69 70 -71 72 -73 74 -75 76 77 78 -79 -80 0
1 -2 3 4 -5 -6 -7 8 9 -10 11 -12 13 -14 15 -16 -17 18 -19 20 -21 -22 23 -24 -25 26 27 -28 -29 30 31 -32 -33 34 35 36 -37 38 39 -40 -41 -42 43 44 -45 -46 47 -48 49 -50 51 52 53 -54 -55 56 57 -58 59 -60 61 -62 -63 64 -65 -66 67 68 -69 70 71 -72 -73 74 -75 76 -77 78 79 -80 0
1 -2 3 4 -5 -6 -7 8 9 -10 11 -12 13 -14 15 -16 -17 18 -19 20 -21 -22 23 -24 -25 26 27 -28 -29 30 31 -32 -33 34 35 -36 37 38 -39 -40 41 42 -43 44 45 -46 -47 -48 49 50 -51 52 53 -54 -55 56 -57 58 59 -60 61 -62 -63 64 -65 -66 67 68 -69 70 71 -72 -73 74 75 -76 -77 78 -79 80 0
1 -2 3 4 -5 -6 -7 8 9 -10 11 -12 13 -14 15 -16 -17 18 -19 20 -21 -22 23 -24 -25 26 27 -28 -29 30 31 -32 -33 34 35 -36 37 38 -39 -40 41 42 -43 44 45 -46 -47 -48 49 50 -51 52 -53 54 -55 -56 57 58 59 60 -61 -62 63 -64 65 -66 -67 68 69 -70 -71 72 -73 74 75 76 -77 -78 -79 80 0
1 -2 3 4 -5 -6 -7 8 9 -10 11 -12 13 -14 15 -16 -17 18 -19 -20 -21 22 23 24 -25 -26 27 28 -29 30 -31 -32 33 34 -35 -36 37 -38 39 -40 41 42 43 -44 45 -46 -47 -48 49 50 -51 52 53 -54 55 -56 -57 58 59 -60 61 -62 -63 -64 -65 66 67 68 -69 70 71 -72 -73 74 75 -76 -77 78 -79 80 0
1 -2 3 4 -5 -6 -7 8 9 -10 11 -12 -13 14 -15 16 -17 18 -19 20 -21 -22 23 -24 -25 26 27 28 -29 -30 31 32 -33 -34 35 -36 -37 38 -39 40 41 42 -43 44 45 -46 -47 48 49 -50 -51 52 -53 -54 55 56 -57 58 59 -60 61 62 -63 64 -65 -66 67 68 -69 -70 71 -72 -73 74 75 -76 -77 78 -79 80 0
1 -2 3 4 -5 -6 -7 8 9 -10 -11 -12 13 -14 15 16 -17 -18 19 20 21 -22 23 -24 25 -26 27 -28 -29 30 31 -32 -33 34 35 -36 37 -38 -39 40 -41 42 -43 44 45 -46 -47 -48 49 50 -51 52 53 -54 -55 56 -57 58 59 -60 61 -62 -63 64 -65 -66 67 -68 69 70 71 72 -73 -74 -75 -76 77 78 -79 80 0
1 -2 3 -4 -5 -6 7 -8 9 10 11 -12 13 -14 15 -16 -17 18 -19 20 -21 22 -23 -24 25 26 -27 -28 -29 30 31 -32 -33 34 35 -36 37 38 -39 -40 41 42 -43 44 -45 46 -47 -48 49 50 -51 52 53 -54 -55 56 -57 58 59 -60 61 -62 -63 64 -65 66 -67 68 -69 70 -71 -72 73 74 75 -76 77 78 -79 -80 0
1 -2 3 -4 -5 -6 7 -8 9 10 11 -12 -13 14 -15 16 -17 18 -19 20 -21 22 -23 -24 25 26 -27 28 -29 -30 31 32 -33 -34 35 -36 -37 38 -39 40 41 42 -43 44 -45 46 -47 48 49 -50 -51 52 -53 54 -55 56 57 -58 -59 60 61 -62 63 64 65 -66 -67 -68 69 -70 -71 72 -73 74 -75 76 77 78 -79 -80 0
1 -2 3 -4 -5 -6 7 -8 9 10 11 -12 -13 14 -15 16 -17 18 -19 20 -21 22 -23 -24 25 26 -27 28 -29 -30 31 32 -33 -34 35 -36 -37 38 -39 40 41 42 -43 44 -45 46 -47 48 49 -50 -51 52 -53 -54 55 56 -57 58 59 -60 61 62 -63 64 -65 66 -67 68 -69 -70 -71 -72 73 74 75 -76 77 78 -79 -80 0
1 -2 3 -4 -5 -6 7 -8 9 10 11 -12 -13 14 -15 16 -17 18 -19 20 -21 22 -23 -24 25 26 -27 28 -29 -30 31 32 -33 -34 -35 36 -37 38 39 -40 41 42 43 44 -45 -46 47 -48 49 -50 51 -52 -53 -54 55 -56 57 58 59 -60 61 62 -63 64 -65 66 -67 68 -69 -70 -71 -72 73 74 75 76 -77 -78 79 -80 0
1 -2 3 -4 -5 -6 7 -8 9 10 11 -12 -13 14 -15 16 -17 18 -19 -20 21 22 23 -24 25 -26 -27 28 29 -30 -31 32 -33 34 -35 -36 37 -38 -39 40 41 42 -43 -44 45 46 -47 48 49 -50 -51 52 -53 54 55 -56 -57 58 59 -60 61 62 -63 -64 -65 66 -67 68 69 -70 -71 -72 73 74 75 -76 77 78 -79 -80 0
1 -2 3 -4 -5 -6 7 -8 9 10 -11 -12 13 14 -15 16 17 -18 -19 20 -21 22 -23 24 25 -26 27 28 -29 -30 31 32 -33 -34 35 -36 -37 -38 39 40 -41 42 -43 44 -45 46 -47 48 49 -50 -51 52 -53 -54 55 56 -57 58 59 -60 61 62 -63 64 -65 66 -67 -68 -69 70 71 -72 73 -74 -75 -76 77 78 79 -80 0
1 -2 -3 4 5 -6 7 8 -9 -10 11 -12 13 -14 15 -16 -17 18 -19 20 -21 -22 23 -24 -25 26 27 -28 29 30 -31 32 -33 34 35 -36 37 38 -39 -40 41 -42 -43 -44 45 46 -47 48 -49 50 -51 52 53 54 -55 56 -57 -58 -59 -60 61 -62 63 64 -65 -66 67 68 -69 70 71 -72 -73 74 75 -76 -77 78 -79 80 0
1 -2 -3 4 5 -6 7 8 -9 -10 -11 12 -13 -14 -15 16 -17 18 19 20 21 -22 23 -24 25 -26 27 -28 29 -30 31 32 -33 -34 35 36 -37 38 -39 40 -41 -42 -43 -44 45 46 -47 48 49 -50 -51 52 -53 54 -55 56 57 -58 -59 60 61 -62 63 64 -65 -66 67 -68 69 -70 71 72 -73 -74 -75 -76 77 78 -79 80 0
1 -2 -3 4 5 -6 7 8 -9 -10 -11 -12 13 -14 15 16 -17 -18 19 20 21 -22 23 -24 25 -26 27 -28 29 30 -31 32 -33 34 35 -36 37 -38 -39 40 -41 -42 -43 -44 45 46 -47 48 -49 50 -51 52 53 54 -55 56 -57 -58 -59 -60 61 -62 63 64 -65 -66 67 -68 69 70 71 72 -73 -74 -75 -76 77 78 -79 80 0
1 -2 -3 4 5 -6 7 8 -9 -10 -11 -12 13 -14 15 16 -17 -18 19 20 21 -22 23 -24 25 -26 27 -28 29 30 -31 32 -33 34 35 -36 37 -38 -39 40 -41 -42 -43 -44 45 46 -47 48 -49 50 -51 52 -53 54 55 -56 -57 58 59 -60 -61 62 63 -64 -65 66 -67 68 69 -70 -71 72 73 -74 75 -76 77 -78 -79 80 0
1 -2 -3 4 5 -6 7 8 -9 -10 -11 -12 13 -14 15 16 -17 -18 19 20 21 -22 23 -24 25 -26 27 -28 29 30 -31 32 -33 34 -35 36 37 -38 39 -40 -41 -42 43 -44 45 -46 47 -48 -49 50 51 -52 53 54 -55 -56 57 -58 -59 -60 61 -62 63 64 -65 -66 67 -68 69 70 71 72 -73 -74 -75 76 -77 -78 79 80 0
1 -2 -3 4 5 -6 7 8 -9 -10 -11 -12 13 -14 15 16 -17 -18 19 20 -21 22 -23 24 25 -26 27 28 -29 30 -31 32 33 -34 35 -36 -37 -38 39 40 -41 -42 43 -44 -45 46 -47 48 -49 50 -51 52 53 -54 55 56 -57 -58 -59 -60 61 -62 63 64 -65 66 67 -68 -69 70 71 72 -73 -74 -75 -76 77 78 -79 80 0
1 -2 -3 4 -5 6 7 -8 -9 10 11 -12 -13 14 -15 16 -17 18 -19 20 -21 22 -23 -24 25 26 -27 28 -29 30 -31 32 33 -34 35 -36 -37 38 -39 40 41 -42 43 -44 -45 46 -47 48 -49 -50 51 52 53 -54 55 56 -57 -58 -59 -60 61 62 -63 64 -65 66 67 68 -69 -70 -71 -72 73 74 75 -76 77 78 -79 -80 0
1 -2 -3 4 -5 6 7 -8 -9 10 -11 12 13 -14 -15 -16 17 18 -19 20 -21 22 -23 24 25 -26 27 -28 -29 30 31 -32 33 -34 35 36 -37 38 39 -40 -41 -42 43 -44 -45 46 -47 -48 49 -50 51 52 53 -54 -55 56 57 -58 -59 60 61 -62 -63 64 -65 66 67 -68 -69 70 71 -72 73 -74 -75 -76 77 78 79 -80 0
1 -2 -3 4 -5 6 7 -8 -9 10 -11 -12 13 14 -15 16 17 -18 -19 20 21 -22 23 -24 25 -26 27 -28 29 30 -31 32 -33 34 35 -36 37 -38 -39 40 -41 -42 -43 -44 45 46 -47 48 -49 -50 51 52 53 54 -55 56 -57 -58 -59 -60 61 62 -63 64 -65 -66 67 -68 69 70 71 -72 73 -74 -75 -76 77 78 79 -80 0
1 -2 -3 4 -5 6 7 -8 -9 10 -11 -12 13 14 -15 16 17 -18 -19 20 -21 22 -23 24 25 -26 27 28 -29 30 -31 32 33 -34 35 -36 -37 -38 39 40 -41 -42 43 -44 -45 46 -47 48 -49 -50 51 52 53 -54 55 56 -57 -58 -59 -60 61 62 -63 64 -65 66 67 -68 -69 70 71 -72 73 -74 -75 -76 77 78 79 -80 0
1 -2 -3 4 -5 6 7 -8 -9 10 -11 -12 13 14 -15 16 17 -18 -19 20 -21 22 -23 24 25 -26 27 28 -29 30 -31 32 33 -34 35 -36 -37 -38 39 40 -41 -42 43 -44 -45 46 -47 48 -49 -50 51 52 -53 54 55 -56 57 -58 -59 60 -61 62 63 -64 65 66 -67 -68 69 -70 -71 72 73 -74 -75 76 77 -78 79 -80 0
1 -2 -3 4 -5 6 7 -8 -9 10 -11 -12 13 14 -15 16 17 -18 -19 20 -21 22 -23 24 25 -26 27 28 -29 30 -31 32 33 -34 -35 -36 37 -38 39 -40 41 42 43 -44 45 -46 -47 -48 -49 50 51 -52 53 -54 55 -56 -57 58 -59 -60 61 62 -63 64 -65 66 67 -68 -69 70 71 -72 73 -74 75 -76 -77 -78 79 80 0
-1 2 3 -4 5 -6 -7 8 9 -10 11 12 -13 -14 15 -16 -17 18 19 -20 21 -22 23 -24 -25 26 -27 -28 29 -30 31 -32 -33 34 35 36 -37 38 -39 40 -41 -42 -43 44 -45 46 47 48 49 -50 -51 52 -53 54 -55 56 57 -58 59 60 -61 -62 63 -64 65 -66 -67 68 69 -70 -71 72 -73 74 -75 76 77 78 -79 -80 0
-1 2 3 -4 5 -6 -7 8 9 -10 11 12 -13 -14 15 -16 -17 18 19 -20 21 -22 23 -24 -25 26 -27 -28 29 -30 31 -32 -33 34 -35 36 37 38 -39 -40 41 42 -43 44 45 -46 47 -48 49 50 -51 -52 53 -54 -55 56 -57 58 59 -60 61 -62 -63 64 -65 -66 67 68 -69 70 71 -72 -73 74 75 -76 -77 78 -79 80 0
-1 2 3 -4 5 -6 -7 8 9 -10 11 12 -13 -14 15 -16 -17 18 19 -20 21 -22 23 -24 -25 26 -27 -28 29 -30 31 -32 -33 34 -35 36 37 38 -39 -40 41 42 -43 44 45 -46 47 -48 49 50 -51 -52 -53 54 -55 -56 57 58 59 60 -61 -62 63 -64 65 -66 -67 68 69 -70 -71 72 -73 74 75 76 -77 -78 -79 80 0
-1 2 3 -4 5 -6 -7 8 9 -10 11 12 -13 -14 15 -16 -17 18 19 -20 -21 22 -23 24 -25 26 -27 28 -29 -30 31 -32 33 -34 -35 36 -37 38 39 -40 41 42 43 44 -45 -46 47 -48 49 50 -51 -52 -53 -54 55 -56 57 58 59 60 -61 -62 63 -64 65 66 -67 68 -69 -70 -71 72 -73 74 75 76 -77 -78 -79 80 0
-1 2 3 -4 5 -6 -7 8 9 -10 11 -12 -13 14 15 16 -17 -18 19 -20 21 -22 23 -24 -25 26 -27 28 29 -30 -31 32 -33 34 -35 -36 37 -38 -39 40 41 42 -43 44 45 -46 47 48 -49 50 -51 -52 -53 54 55 -56 -57 58 59 -60 -61 62 63 -64 65 -66 -67 68 69 -70 -71 72 -73 74 75 76 -77 -78 -79 80 0
-1 2 3 -4 5 -6 -7 8 9 -10 -11 12 13 -14 15 -16 17 -18 19 -20 21 -22 23 24 -25 -26 27 -28 29 -30 31 -32 -33 34 -35 36 37 -38 39 -40 -41 42 -43 44 45 -46 47 -48 49 50 -51 -52 -53 54 -55 -56 57 58 59 60 -61 -62 63 -64 65 -66 -67 -68 69 70 71 72 -73 -74 -75 76 -77 -78 79 80 0
-1 2 3 -4 -5 6 -7 -8 9 10 11 12 -13 14 -15 -16 17 18 -19 -20 21 -22 23 -24 -25 26 -27 -28 29 -30 31 -32 -33 34 -35 36 37 38 -39 -40 41 42 -43 44 45 -46 47 -48 49 -50 51 -52 -53 54 -55 -56 57 58 59 60 -61 62 -63 -64 65 -66 -67 68 69 -70 -71 -72 73 74 75 76 -77 -78 79 -80 0
-1 2 3 -4 -5 6 -7 -8 9 10 11 12 -13 14 -15 -16 17 18 -19 -20 -21 22 -23 24 -25 26 -27 28 -29 -30 31 -32 33 -34 35 -36 -37 38 -39 40 41 42 -43 44 -45 46 -47 48 49 -50 -51 52 -53 -54 55 56 -57 58 59 60 -61 62 -63 -64 65 66 -67 68 -69 -70 -71 -72 73 74 75 -76 77 78 -79 -80 0
-1 2 3 -4 -5 6 -7 -8 9 10 11 12 -13 14 -15 -16 17 18 -19 -20 -21 22 -23 24 -25 26 -27 28 -29 -30 31 -32 33 -34 -35 36 -37 38 39 -40 41 42 43 44 -45 -46 47 -48 49 -50 51 -52 53 -54 -55 56 57 -58 -59 60 61 -62 -63 64 65 -66 67 -68 -69 70 71 -72 -73 74 -75 76 -77 78 79 -80 0
-1 2 3 -4 -5 6 -7 -8 9 10 11 12 -13 14 -15 -16 17 18 -19 -20 -21 22 -23 24 -25 26 -27 28 -29 -30 31 -32 33 -34 -35 36 -37 38 39 -40 41 42 43 44 -45 -46 47 -48 49 -50 51 -52 -53 -54 55 -56 57 58 59 60 -61 62 -63 -64 65 66 -67 68 -69 -70 -71 -72 73 74 75 76 -77 -78 79 -80 0
-1 2 3 -4 -5 6 -7 -8 9 10 11 -12 13 14 15 -16 17 -18 -19 -20 -21 22 -23 24 -25 26 -27 28 -29 30 -31 -32 33 34 -35 -36 37 -38 39 -40 41 42 43 44 -45 -46 47 -48 -49 50 51 -52 53 -54 55 -56 -57 58 59 -60 -61 62 -63 -64 65 66 -67 68 -69 70 -71 -72 73 74 75 76 -77 -78 79 -80 0
-1 2 3 -4 -5 6 -7 -8 9 10 -11 12 -13 14 -15 16 17 -18 19 -20 21 22 -23 24 25 -26 -27 28 -29 -30 31 -32 33 -34 -35 36 -37 -38 39 40 -41 42 43 44 -45 -46 47 -48 49 -50 51 -52 -53 -54 55 -56 57 58 59 60 -61 62 -63 -64 65 66 -67 -68 69 -70 -71 72 73 -74 -75 76 77 -78 79 -80 0
-1 2 -3 4 5 6 -7 8 -9 -10 11 12 -13 -14 15 -16 -17 18 19 -20 21 -22 23 -24 -25 26 -27 -28 29 30 -31 -32 33 34 -35 36 37 38 -39 -40 41 -42 43 -44 45 -46 47 -48 -49 50 51 -52 53 54 -55 -56 57 -58 -59 60 -61 -62 63 -64 65 -66 67 68 69 -70 -71 72 -73 74 75 76 -77 -78 -79 80 0
-1 2 -3 4 5 6 -7 8 -9 -10 -11 12 13 -14 15 -16 17 -18 19 20 -21 -22 -23 24 -25 26 27 -28 -29 30 31 -32 33 -34 35 36 -37 38 39 -40 -41 -42 43 44 -45 -46 47 -48 -49 50 51 -52 53 -54 -55 56 57 -58 -59 60 -61 -62 63 64 65 -66 67 -68 -69 70 71 72 -73 -74 -75 76 -77 -78 79 80 0
-1 2 -3 4 5 6 -7 8 -9 -10 -11 12 13 -14 15 -16 17 -18 19 -20 21 -22 23 24 -25 -26 27 -28 29 30 -31 -32 33 34 35 -36 37 -38 -39 40 -41 -42 -43 -44 45 46 -47 48 -49 50 -51 52 53 54 -55 56 -57 -58 -59 60 -61 -62 63 -64 65 -66 67 -68 69 70 71 72 -73 -74 -75 -76 77 78 -79 80 0
-1 2 -3 4 5 6 -7 8 -9 -10 -11 12 13 -14 15 -16 17 -18 19 -20 21 -22 23 24 -25 -26 27 -28 29 30 -31 -32 33 34 -35 36 37 -38 39 -40 -41 -42 43 -44 45 -46 47 -48 -49 50 51 -52 53 54 -55 -56 57 -58 -59 60 -61 -62 63 -64 65 -66 67 -68 69 70 71 72 -73 -74 -75 76 -77 -78 79 80 0
-1 2 -3 4 5 6 -7 8 -9 -10 -11 12 13 -14 15 -16 17 -18 19 -20 21 -22 23 24 -25 -26 27 -28 29 30 -31 -32 33 34 -35 36 37 -38 39 -40 -41 -42 43 -44 45 -46 47 -48 -49 50 51 -52 53 -54 55 -56 -57 58 59 -60 -61 62 -63 -64 -65 66 67 68 -69 70 71 -72 73 -74 75 -76 -77 -78 79 80 0
-1 2 -3 4 5 6 -7 8 -9 -10 -11 12 -13 14 -15 16 17 -18 19 -20 21 -22 23 24 -25 -26 27 28 29 -30 -31 32 33 -34 -35 36 -37 -38 39 40 -41 -42 43 -44 45 -46 47 48 -49 -50 51 -52 -53 54 55 -56 57 -58 -59 60 -61 62 63 -64 65 -66 67 -68 69 -70 71 72 -73 -74 -75 76 -77 -78 79 80 0
-1 2 -3 -4 5 6 7 -8 -9 10 11 12 -13 14 -15 -16 17 18 -19 -20 -21 22 -23 24 -25 26 -27 28 29 -30 -31 32 33 -34 -35 36 -37 38 39 -40 41 -42 43 -44 -45 46 47 48 -49 -50 51 -52 -53 54 55 -56 57 -58 -59 60 -61 62 63 -64 65 66 -67 68 -69 -70 -71 -72 73 74 75 76 -77 -78 79 -80 0
-1 2 -3 -4 5 6 7 -8 -9 10 -11 12 13 -14 15 -16 17 -18 19 -20 21 22 -23 24 25 -26 -27 -28 29 30 -31 -32 33 34 -35 36 37 -38 39 -40 -41 -42 43 -44 -45 46 47 -48 -49 50 51 -52 53 54 -55 -56 57 -58 -59 60 -61 -62 63 -64 65 66 -67 -68 69 70 -71 72 73 -74 -75 76 77 -78 79 -80 0
-1 2 -3 -4 5 6 7 -8 -9 10 -11 12 -13 14 -15 16 17 -18 19 20 21 -22 -23 -24 25 26 -27 -28 29 -30 31 32 -33 -34 35 36 -37 38 -39 40 -41 -42 -43 44 -45 46 47 48 -49 -50 51 -52 -53 54 -55 56 57 -58 -59 60 -61 62 63 64 65 -66 -67 -68 69 -70 -71 72 73 -74 -75 76 77 -78 79 -80 0
-1 2 -3 -4 5 6 7 -8 -9 10 -11 12 -13 14 -15 16 17 -18 19 -20 21 22 -23 24 25 -26 -27 28 29 -30 -31 32 33 -34 -35 36 -37 -38 39 40 -41 -42 43 -44 -45 46 47 48 -49 -50 51 -52 53 -54 55 56 -57 -58 -59 -60 61 62 -63 64 -65 66 67 -68 -69 70 71 -72 73 -74 -75 -76 77 78 79 -80 0
-1 2 -3 -4 5 6 7 -8 -9 10 -11 12 -13 14 -15 16 17 -18 19 -20 21 22 -23 24 25 -26 -27 28 29 -30 -31 32 33 -34 -35 36 -37 -38 39 40 -41 -42 43 -44 -45 46 47 48 -49 -50 51 -52 -53 54 55 -56 57 -58 -59 60 -61 62 63 -64 65 66 -67 -68 69 -70 -71 72 73 -74 -75 76 77 -78 79 -80 0
-1 2 -3 -4 5 6 7 -8 -9 10 -11 12 -13 14 -15 16 17 -18 19 -20 21 22 -23 24 25 -26 -27 28 29 -30 -31 32 33 -34 -35 -36 37 -38 -39 40 41 42 -43 -44 45 46 -47 48 -49 50 -51 -52 -53 54 55 -56 -57 58 -59 60 -61 62 63 -64 65 66 -67 -68 69 -70 -71 72 73 -74 75 -76 77 -78 -79 80 0
-1 -2 3 4 -5 6 -7 8 -9 10 11 12 -13 14 -15 -16 17 18 -19 -20 -21 22 23 24 -25 -26 27 28 -29 -30 31 -32 33 -34 -35 36 -37 38 39 -40 41 42 43 -44 45 -46 -47 -48 49 -50 51 -52 -53 -54 55 -56 57 58 59 60 -61 62 -63 -64 -65 66 67 68 -69 -70 71 -72 73 -74 75 -76 -77 -78 79 80 0
-1 -2 3 4 -5 6 -7 8 -9 10 11 -12 13 14 15 -16 17 -18 -19 20 -21 -22 23 -24 -25 26 27 -28 -29 30 31 -32 -33 34 35 -36 37 38 -39 -40 41 42 -43 44 45 -46 -47 -48 -49 50 51 -52 53 -54 -55 56 -57 58 59 -60 -61 62 -63 64 -65 -66 67 68 -69 70 71 -72 73 -74 75 -76 -77 -78 79 80 0
-1 -2 3 4 -5 6 -7 8 -9 10 11 -12 13 14 15 -16 17 -18 -19 -20 -21 22 23 24 -25 -26 27 28 -29 30 -31 -32 33 34 35 -36 -37 -38 39 40 -41 -42 43 -44 -45 46 -47 48 -49 -50 51 52 53 -54 55 56 -57 -58 59 -60 -61 62 -63 -64 -65 66 67 68 -69 70 71 -72 73 -74 -75 -76 77 78 79 -80 0
-1 -2 3 4 -5 6 -7 8 -9 10 11 -12 13 14 15 -16 17 -18 -19 -20 -21 22 23 24 -25 -26 27 28 -29 30 -31 -32 33 34 -35 -36 37 -38 39 -40 41 42 43 -44 45 -46 -47 -48 -49 50 51 -52 53 54 -55 -56 57 -58 -59 60 -61 -62 63 -64 65 -66 67 -68 69 70 71 72 -73 -74 -75 76 -77 -78 79 80 0
-1 -2 3 4 -5 6 -7 8 -9 10 11 -12 13 14 15 -16 17 -18 -19 -20 -21 22 23 24 -25 -26 27 28 -29 30 -31 -32 33 34 -35 -36 37 -38 39 -40 41 42 43 -44 45 -46 -47 -48 -49 50 51 -52 53 -54 55 -56 -57 58 59 -60 -61 62 -63 -64 -65 66 67 68 -69 70 71 -72 73 -74 75 -76 -77 -78 79 80 0
-1 -2 3 4 -5 6 -7 8 -9 10 11 -12 -13 14 15 16 -17 -18 19 -20 21 22 23 -24 25 -26 -27 28 -29 30 -31 -32 33 34 -35 -36 37 -38 -39 40 41 42 43 -44 45 -46 -47 -48 -49 50 51 -52 53 -54 55 -56 -57 58 59 -60 -61 62 -63 -64 -65 66 67 68 69 -70 -71 72 73 -74 75 -76 77 -78 -79 80 0
-1 -2 3 -4 5 -6 7 8 -9 10 11 12 -13 -14 15 -16 -17 18 19 -20 21 22 23 -24 25 -26 -27 -28 29 -30 31 -32 -33 34 -35 36 37 38 -39 -40 41 42 -43 -44 45 46 -47 -48 49 50 -51 -52 -53 54 -55 -56 57 58 59 60 -61 -62 63 -64 -65 66 -67 68 69 -70 -71 72 73 -74 75 -76 77 -78 -79 80 0
-1 -2 3 -4 5 -6 7 8 -9 10 11 -12 13 14 15 -16 17 -18 -19 -20 -21 22 23 24 -25 -26 27 28 29 -30 -31 32 -33 34 -35 -36 37 -38 39 -40 41 42 -43 -44 45 46 -47 48 -49 50 -51 -52 -53 54 55 -56 -57 58 59 -60 -61 62 63 -64 -65 66 -67 68 -69 70 71 -72 73 -74 75 -76 -77 -78 79 80 0
-1 -2 3 -4 5 -6 7 8 -9 10 11 -12 -13 14 15 16 -17 -18 19 20 -21 22 -23 -24 25 26 -27 28 -29 -30 31 32 -33 -34 35 -36 -37 38 -39 40 41 42 -43 44 -45 46 -47 48 -49 50 -51 -52 -53 -54 55 56 -57 58 59 -60 -61 62 63 64 -65 66 -67 68 -69 -70 -71 72 73 -74 75 -76 77 -78 -79 80 0
-1 -2 3 -4 5 -6 7 8 -9 10 11 -12 -13 14 15 16 -17 -18 19 -20 21 22 23 -24 25 -26 -27 28 29 -30 -31 32 -33 34 -35 36 -37 -38 39 40 -41 -42 43 -44 -45 46 47 48 -49 -50 51 -52 -53 54 55 -56 57 -58 59 -60 -61 62 63 -64 -65 66 -67 68 69 -70 -71 72 73 -74 -75 76 77 -78 79 -80 0
-1 -2 3 -4 5 -6 7 8 -9 10 11 -12 -13 14 15 16 -17 -18 19 -20 21 22 23 -24 25 -26 -27 28 29 -30 -31 32 -33 34 -35 -36 37 -38 -39 40 41 42 -43 -44 45 46 -47 48 -49 50 -51 -52 53 54 -55 56 -57 -58 -59 -60 61 -62 63 64 -65 -66 67 -68 69 70 71 72 -73 -74 -75 -76 77 78 -79 80 0
-1 -2 3 -4 5 -6 7 8 -9 10 11 -12 -13 14 15 16 -17 -18 19 -20 21 22 23 -24 25 -26 -27 28 29 -30 -31 32 -33 34 -35 -36 37 -38 -39 40 41 42 -43 -44 45 46 -47 48 -49 50 -51 -52 -53 54 55 -56 -57 58 59 -60 -61 62 63 -64 -65 66 -67 68 69 -70 -71 72 73 -74 75 -76 77 -78 -79 80 0
